NAME:  br17
TYPE: ATSP
COMMENT: 12 city problem (Repetto)
DIMENSION:  12
EDGE_WEIGHT_TYPE: EXPLICIT
EDGE_WEIGHT_FORMAT: FULL_MATRIX
EDGE_WEIGHT_SECTION
2147483647 72 77 62 30 33 99 76 56 31 31 65
72 2147483647 40 94 61 84 6 45 3 6 85 8
77 40 2147483647 22 44 87 70 90 45 25 94 68
62 94 22 2147483647 49 75 32 59 13 74 6 52
30 61 44 49 2147483647 37 86 51 46 5 2 2
33 84 87 75 37 2147483647 2 42 22 84 2 40
99 6 70 32 86 2 2147483647 42 12 11 78 5
76 45 90 59 51 42 29 2147483647 82 49 83 63
56 3 45 13 46 22 12 82 2147483647 28 93 29
31 6 25 74 5 84 11 49 28 2147483647 91 39
31 85 94 6 2 2 78 83 93 91 2147483647 80
65 8 68 52 2 40 5 63 29 39 80 2147483647
EOF
